p cnf 20 15
19 -5 13 -14 -4 0
12 -18 10 -14 -1 0
-14 -6 7 17 -10 0
-9 7 -16 6 -18 0
5 9 -12 -14 15 0
12 15 -11 19 -14 0
13 9 -11 3 -15 0
6 3 1 19 -15 0
15 4 5 8 3 0
12 19 16 14 -13 0
-18 -9 5 19 -1 0
13 -4 -2 1 8 0
3 7 4 -12 -20 0
-3 -11 -18 -5 -9 0
12 -15 -3 -16 -6 0
